\ This file has been generated by DOcplex
\ ENCODING=ISO-8859-1
\Problem name: TRP_BigM

Minimize
 obj: thr_0_21_0 + thr_0_21_180 + thr_0_21_360 + thr_1_15_0 + thr_1_15_180
      + thr_1_15_360 + thr_2_33_0 + thr_2_33_180 + thr_2_33_360 + thr_3_39_0
      + thr_3_39_180 + thr_3_39_360 + thr_4_39_0 + thr_4_39_180 + thr_4_39_360
Subject To
 c1: - t_0_0 + t_0_1 >= 0
 c2: - t_0_1 + t_0_2 >= 229
 c3: - t_0_2 + t_0_3 >= 0
 c4: - t_0_3 + t_0_4 >= 288
 c5: - t_0_4 + t_0_5 >= 0
 c6: - t_0_5 + t_0_6 >= 335
 c7: - t_0_6 + t_0_7 >= 300
 c8: - t_0_7 + t_0_8 >= 470
 c9: - t_0_8 + t_0_9 >= 0
 c10: - t_0_9 + t_0_10 >= 241
 c11: - t_0_10 + t_0_11 >= 0
 c12: - t_0_11 + t_0_12 >= 429
 c13: - t_0_12 + t_0_13 >= 240
 c14: - t_0_13 + t_0_14 >= 372
 c15: - t_0_14 + t_0_15 >= 0
 c16: - t_0_15 + t_0_16 >= 267
 c17: - t_0_16 + t_0_17 >= 0
 c18: - t_0_17 + t_0_18 >= 480
 c19: - t_0_18 + t_0_19 >= 0
 c20: - t_0_19 + t_0_20 >= 215
 c21: - t_0_20 + t_0_21 >= 0
 c22: - t_0_21 + t_0_22 >= 286
 c23: - t_1_0 + t_1_1 >= 0
 c24: - t_1_1 + t_1_2 >= 135
 c25: - t_1_2 + t_1_3 >= 180
 c26: - t_1_3 + t_1_4 >= 90
 c27: - t_1_4 + t_1_5 >= 0
 c28: - t_1_5 + t_1_6 >= 30
 c29: - t_1_6 + t_1_7 >= 0
 c30: - t_1_7 + t_1_8 >= 150
 c31: - t_1_8 + t_1_9 >= 30
 c32: - t_1_9 + t_1_10 >= 90
 c33: - t_1_10 + t_1_11 >= 30
 c34: - t_1_11 + t_1_12 >= 90
 c35: - t_1_12 + t_1_13 >= 30
 c36: - t_1_13 + t_1_14 >= 110
 c37: - t_1_14 + t_1_15 >= 0
 c38: - t_1_15 + t_1_16 >= 190
 c39: - t_2_0 + t_2_1 >= 0
 c40: - t_2_1 + t_2_2 >= 19
 c41: - t_2_2 + t_2_3 >= 30
 c42: - t_2_3 + t_2_4 >= 120
 c43: - t_2_4 + t_2_5 >= 0
 c44: - t_2_5 + t_2_6 >= 45
 c45: - t_2_6 + t_2_7 >= 0
 c46: - t_2_7 + t_2_8 >= 135
 c47: - t_2_8 + t_2_9 >= 60
 c48: - t_2_9 + t_2_10 >= 210
 c49: - t_2_10 + t_2_11 >= 30
 c50: - t_2_11 + t_2_12 >= 150
 c51: - t_2_12 + t_2_13 >= 30
 c52: - t_2_13 + t_2_14 >= 150
 c53: - t_2_14 + t_2_15 >= 30
 c54: - t_2_15 + t_2_16 >= 90
 c55: - t_2_16 + t_2_17 >= 30
 c56: - t_2_17 + t_2_18 >= 171
 c57: - t_2_18 + t_2_19 >= 0
 c58: - t_2_19 + t_2_20 >= 83
 c59: - t_2_20 + t_2_21 >= 0
 c60: - t_2_21 + t_2_22 >= 126
 c61: - t_2_22 + t_2_23 >= 40
 c62: - t_2_23 + t_2_24 >= 480
 c63: - t_2_24 + t_2_25 >= 180
 c64: - t_2_25 + t_2_26 >= 240
 c65: - t_2_26 + t_2_27 >= 0
 c66: - t_2_27 + t_2_28 >= 210
 c67: - t_2_28 + t_2_29 >= 30
 c68: - t_2_29 + t_2_30 >= 240
 c69: - t_2_30 + t_2_31 >= 0
 c70: - t_2_31 + t_2_32 >= 180
 c71: - t_2_32 + t_2_33 >= 0
 c72: - t_2_33 + t_2_34 >= 360
 c73: - t_3_0 + t_3_1 >= 60
 c74: - t_3_1 + t_3_2 >= 157
 c75: - t_3_2 + t_3_3 >= 0
 c76: - t_3_3 + t_3_4 >= 113
 c77: - t_3_4 + t_3_5 >= 30
 c78: - t_3_5 + t_3_6 >= 150
 c79: - t_3_6 + t_3_7 >= 30
 c80: - t_3_7 + t_3_8 >= 90
 c81: - t_3_8 + t_3_9 >= 30
 c82: - t_3_9 + t_3_10 >= 120
 c83: - t_3_10 + t_3_11 >= 0
 c84: - t_3_11 + t_3_12 >= 45
 c85: - t_3_12 + t_3_13 >= 0
 c86: - t_3_13 + t_3_14 >= 135
 c87: - t_3_14 + t_3_15 >= 60
 c88: - t_3_15 + t_3_16 >= 210
 c89: - t_3_16 + t_3_17 >= 30
 c90: - t_3_17 + t_3_18 >= 150
 c91: - t_3_18 + t_3_19 >= 30
 c92: - t_3_19 + t_3_20 >= 150
 c93: - t_3_20 + t_3_21 >= 30
 c94: - t_3_21 + t_3_22 >= 90
 c95: - t_3_22 + t_3_23 >= 30
 c96: - t_3_23 + t_3_24 >= 171
 c97: - t_3_24 + t_3_25 >= 0
 c98: - t_3_25 + t_3_26 >= 83
 c99: - t_3_26 + t_3_27 >= 0
 c100: - t_3_27 + t_3_28 >= 126
 c101: - t_3_28 + t_3_29 >= 40
 c102: - t_3_29 + t_3_30 >= 480
 c103: - t_3_30 + t_3_31 >= 180
 c104: - t_3_31 + t_3_32 >= 229
 c105: - t_3_32 + t_3_33 >= 0
 c106: - t_3_33 + t_3_34 >= 221
 c107: - t_3_34 + t_3_35 >= 30
 c108: - t_3_35 + t_3_36 >= 262
 c109: - t_3_36 + t_3_37 >= 0
 c110: - t_3_37 + t_3_38 >= 159
 c111: - t_3_38 + t_3_39 >= 0
 c112: - t_3_39 + t_3_40 >= 359
 c113: - t_4_0 + t_4_1 >= 0
 c114: - t_4_1 + t_4_2 >= 300
 c115: - t_4_2 + t_4_3 >= 0
 c116: - t_4_3 + t_4_4 >= 180
 c117: - t_4_4 + t_4_5 >= 0
 c118: - t_4_5 + t_4_6 >= 270
 c119: - t_4_6 + t_4_7 >= 30
 c120: - t_4_7 + t_4_8 >= 240
 c121: - t_4_8 + t_4_9 >= 0
 c122: - t_4_9 + t_4_10 >= 180
 c123: - t_4_10 + t_4_11 >= 0
 c124: - t_4_11 + t_4_12 >= 380
 c125: - t_4_12 + t_4_13 >= 40
 c126: - t_4_13 + t_4_14 >= 103
 c127: - t_4_14 + t_4_15 >= 0
 c128: - t_4_15 + t_4_16 >= 69
 c129: - t_4_16 + t_4_17 >= 0
 c130: - t_4_17 + t_4_18 >= 218
 c131: - t_4_18 + t_4_19 >= 30
 c132: - t_4_19 + t_4_20 >= 150
 c133: - t_4_20 + t_4_21 >= 30
 c134: - t_4_21 + t_4_22 >= 90
 c135: - t_4_22 + t_4_23 >= 30
 c136: - t_4_23 + t_4_24 >= 150
 c137: - t_4_24 + t_4_25 >= 30
 c138: - t_4_25 + t_4_26 >= 240
 c139: - t_4_26 + t_4_27 >= 180
 c140: - t_4_27 + t_4_28 >= 90
 c141: - t_4_28 + t_4_29 >= 0
 c142: - t_4_29 + t_4_30 >= 30
 c143: - t_4_30 + t_4_31 >= 0
 c144: - t_4_31 + t_4_32 >= 150
 c145: - t_4_32 + t_4_33 >= 30
 c146: - t_4_33 + t_4_34 >= 90
 c147: - t_4_34 + t_4_35 >= 30
 c148: - t_4_35 + t_4_36 >= 90
 c149: - t_4_36 + t_4_37 >= 30
 c150: - t_4_37 + t_4_38 >= 122
 c151: - t_4_38 + t_4_39 >= 0
 c152: - t_4_39 + t_4_40 >= 178
 c153: t_0_2 - t_2_23 + 43200 y_0_1_2_23 <= 43200
 c154: t_2_24 - t_0_1 - 43200 y_0_1_2_23 <= 0
 c155: t_0_4 - t_2_25 + 43200 y_0_3_2_25 <= 43200
 c156: t_2_26 - t_0_3 - 43200 y_0_3_2_25 <= 0
 c157: t_0_6 - t_2_27 + 43200 y_0_5_2_27 <= 43200
 c158: t_2_28 - t_0_5 - 43200 y_0_5_2_27 <= 0
 c159: t_0_8 - t_2_29 + 43200 y_0_7_2_29 <= 43200
 c160: t_2_30 - t_0_7 - 43200 y_0_7_2_29 <= 0
 c161: t_0_10 - t_2_31 + 43200 y_0_9_2_31 <= 43200
 c162: t_2_32 - t_0_9 - 43200 y_0_9_2_31 <= 0
 c163: t_0_12 - t_2_33 + 43200 y_0_11_2_33 <= 43200
 c164: t_2_34 - t_0_11 - 43200 y_0_11_2_33 <= 0
 c165: t_0_2 - t_3_29 + 43200 y_0_1_3_29 <= 43200
 c166: t_3_30 - t_0_1 - 43200 y_0_1_3_29 <= 0
 c167: t_0_4 - t_3_31 + 43200 y_0_3_3_31 <= 43200
 c168: t_3_32 - t_0_3 - 43200 y_0_3_3_31 <= 0
 c169: t_0_6 - t_3_33 + 43200 y_0_5_3_33 <= 43200
 c170: t_3_34 - t_0_5 - 43200 y_0_5_3_33 <= 0
 c171: t_0_8 - t_3_35 + 43200 y_0_7_3_35 <= 43200
 c172: t_3_36 - t_0_7 - 43200 y_0_7_3_35 <= 0
 c173: t_0_10 - t_3_37 + 43200 y_0_9_3_37 <= 43200
 c174: t_3_38 - t_0_9 - 43200 y_0_9_3_37 <= 0
 c175: t_0_12 - t_3_39 + 43200 y_0_11_3_39 <= 43200
 c176: t_3_40 - t_0_11 - 43200 y_0_11_3_39 <= 0
 c177: t_0_2 - t_4_11 + 43200 y_0_1_4_11 <= 43200
 c178: t_4_12 - t_0_1 - 43200 y_0_1_4_11 <= 0
 c179: t_0_4 - t_4_9 + 43200 y_0_3_4_9 <= 43200
 c180: t_4_10 - t_0_3 - 43200 y_0_3_4_9 <= 0
 c181: t_0_6 - t_4_7 + 43200 y_0_5_4_7 <= 43200
 c182: t_4_8 - t_0_5 - 43200 y_0_5_4_7 <= 0
 c183: t_0_8 - t_4_5 + 43200 y_0_7_4_5 <= 43200
 c184: t_4_6 - t_0_7 - 43200 y_0_7_4_5 <= 0
 c185: t_0_10 - t_4_3 + 43200 y_0_9_4_3 <= 43200
 c186: t_4_4 - t_0_9 - 43200 y_0_9_4_3 <= 0
 c187: t_0_12 - t_4_1 + 43200 y_0_11_4_1 <= 43200
 c188: t_4_2 - t_0_11 - 43200 y_0_11_4_1 <= 0
 c189: t_1_2 - t_2_9 + 43200 y_1_1_2_9 <= 43200
 c190: t_2_10 - t_1_1 - 43200 y_1_1_2_9 <= 0
 c191: t_1_4 - t_2_7 + 43200 y_1_3_2_7 <= 43200
 c192: t_2_8 - t_1_3 - 43200 y_1_3_2_7 <= 0
 c193: t_1_6 - t_2_5 + 43200 y_1_5_2_5 <= 43200
 c194: t_2_6 - t_1_5 - 43200 y_1_5_2_5 <= 0
 c195: t_1_8 - t_2_3 + 43200 y_1_7_2_3 <= 43200
 c196: t_2_4 - t_1_7 - 43200 y_1_7_2_3 <= 0
 c197: t_1_10 - t_2_1 + 43200 y_1_9_2_1 <= 43200
 c198: t_2_2 - t_1_9 - 43200 y_1_9_2_1 <= 0
 c199: t_1_2 - t_3_15 + 43200 y_1_1_3_15 <= 43200
 c200: t_3_16 - t_1_1 - 43200 y_1_1_3_15 <= 0
 c201: t_1_4 - t_3_13 + 43200 y_1_3_3_13 <= 43200
 c202: t_3_14 - t_1_3 - 43200 y_1_3_3_13 <= 0
 c203: t_1_6 - t_3_11 + 43200 y_1_5_3_11 <= 43200
 c204: t_3_12 - t_1_5 - 43200 y_1_5_3_11 <= 0
 c205: t_1_8 - t_3_9 + 43200 y_1_7_3_9 <= 43200
 c206: t_3_10 - t_1_7 - 43200 y_1_7_3_9 <= 0
 c207: t_1_10 - t_3_7 + 43200 y_1_9_3_7 <= 43200
 c208: t_3_8 - t_1_9 - 43200 y_1_9_3_7 <= 0
 c209: t_1_12 - t_3_5 + 43200 y_1_11_3_5 <= 43200
 c210: t_3_6 - t_1_11 - 43200 y_1_11_3_5 <= 0
 c211: t_1_14 - t_3_3 + 43200 y_1_13_3_3 <= 43200
 c212: t_3_4 - t_1_13 - 43200 y_1_13_3_3 <= 0
 c213: t_1_16 - t_3_1 + 43200 y_1_15_3_1 <= 43200
 c214: t_3_2 - t_1_15 - 43200 y_1_15_3_1 <= 0
 c215: t_1_2 - t_4_25 + 43200 y_1_1_4_25 <= 43200
 c216: t_4_26 - t_1_1 - 43200 y_1_1_4_25 <= 0
 c217: t_1_4 - t_4_27 + 43200 y_1_3_4_27 <= 43200
 c218: t_4_28 - t_1_3 - 43200 y_1_3_4_27 <= 0
 c219: t_1_6 - t_4_29 + 43200 y_1_5_4_29 <= 43200
 c220: t_4_30 - t_1_5 - 43200 y_1_5_4_29 <= 0
 c221: t_1_8 - t_4_31 + 43200 y_1_7_4_31 <= 43200
 c222: t_4_32 - t_1_7 - 43200 y_1_7_4_31 <= 0
 c223: t_1_10 - t_4_33 + 43200 y_1_9_4_33 <= 43200
 c224: t_4_34 - t_1_9 - 43200 y_1_9_4_33 <= 0
 c225: t_1_12 - t_4_35 + 43200 y_1_11_4_35 <= 43200
 c226: t_4_36 - t_1_11 - 43200 y_1_11_4_35 <= 0
 c227: t_1_14 - t_4_37 + 43200 y_1_13_4_37 <= 43200
 c228: t_4_38 - t_1_13 - 43200 y_1_13_4_37 <= 0
 c229: t_1_16 - t_4_39 + 43200 y_1_15_4_39 <= 43200
 c230: t_4_40 - t_1_15 - 43200 y_1_15_4_39 <= 0
 c231: t_2_2 - t_3_7 + 43200 y_2_1_3_7 <= 43200
 c232: t_3_8 - t_2_1 - 43200 y_2_1_3_7 <= 0
 c233: t_2_4 - t_3_9 + 43200 y_2_3_3_9 <= 43200
 c234: t_3_10 - t_2_3 - 43200 y_2_3_3_9 <= 0
 c235: t_2_6 - t_3_11 + 43200 y_2_5_3_11 <= 43200
 c236: t_3_12 - t_2_5 - 43200 y_2_5_3_11 <= 0
 c237: t_2_8 - t_3_13 + 43200 y_2_7_3_13 <= 43200
 c238: t_3_14 - t_2_7 - 43200 y_2_7_3_13 <= 0
 c239: t_2_10 - t_3_15 + 43200 y_2_9_3_15 <= 43200
 c240: t_3_16 - t_2_9 - 43200 y_2_9_3_15 <= 0
 c241: t_2_12 - t_3_17 + 43200 y_2_11_3_17 <= 43200
 c242: t_3_18 - t_2_11 - 43200 y_2_11_3_17 <= 0
 c243: t_2_14 - t_3_19 + 43200 y_2_13_3_19 <= 43200
 c244: t_3_20 - t_2_13 - 43200 y_2_13_3_19 <= 0
 c245: t_2_16 - t_3_21 + 43200 y_2_15_3_21 <= 43200
 c246: t_3_22 - t_2_15 - 43200 y_2_15_3_21 <= 0
 c247: t_2_18 - t_3_23 + 43200 y_2_17_3_23 <= 43200
 c248: t_3_24 - t_2_17 - 43200 y_2_17_3_23 <= 0
 c249: t_2_20 - t_3_25 + 43200 y_2_19_3_25 <= 43200
 c250: t_3_26 - t_2_19 - 43200 y_2_19_3_25 <= 0
 c251: t_2_22 - t_3_27 + 43200 y_2_21_3_27 <= 43200
 c252: t_3_28 - t_2_21 - 43200 y_2_21_3_27 <= 0
 c253: t_2_24 - t_3_29 + 43200 y_2_23_3_29 <= 43200
 c254: t_3_30 - t_2_23 - 43200 y_2_23_3_29 <= 0
 c255: t_2_26 - t_3_31 + 43200 y_2_25_3_31 <= 43200
 c256: t_3_32 - t_2_25 - 43200 y_2_25_3_31 <= 0
 c257: t_2_28 - t_3_33 + 43200 y_2_27_3_33 <= 43200
 c258: t_3_34 - t_2_27 - 43200 y_2_27_3_33 <= 0
 c259: t_2_30 - t_3_35 + 43200 y_2_29_3_35 <= 43200
 c260: t_3_36 - t_2_29 - 43200 y_2_29_3_35 <= 0
 c261: t_2_32 - t_3_37 + 43200 y_2_31_3_37 <= 43200
 c262: t_3_38 - t_2_31 - 43200 y_2_31_3_37 <= 0
 c263: t_2_34 - t_3_39 + 43200 y_2_33_3_39 <= 43200
 c264: t_3_40 - t_2_33 - 43200 y_2_33_3_39 <= 0
 c265: t_2_2 - t_4_33 + 43200 y_2_1_4_33 <= 43200
 c266: t_4_34 - t_2_1 - 43200 y_2_1_4_33 <= 0
 c267: t_2_4 - t_4_31 + 43200 y_2_3_4_31 <= 43200
 c268: t_4_32 - t_2_3 - 43200 y_2_3_4_31 <= 0
 c269: t_2_6 - t_4_29 + 43200 y_2_5_4_29 <= 43200
 c270: t_4_30 - t_2_5 - 43200 y_2_5_4_29 <= 0
 c271: t_2_8 - t_4_27 + 43200 y_2_7_4_27 <= 43200
 c272: t_4_28 - t_2_7 - 43200 y_2_7_4_27 <= 0
 c273: t_2_10 - t_4_25 + 43200 y_2_9_4_25 <= 43200
 c274: t_4_26 - t_2_9 - 43200 y_2_9_4_25 <= 0
 c275: t_2_12 - t_4_23 + 43200 y_2_11_4_23 <= 43200
 c276: t_4_24 - t_2_11 - 43200 y_2_11_4_23 <= 0
 c277: t_2_14 - t_4_21 + 43200 y_2_13_4_21 <= 43200
 c278: t_4_22 - t_2_13 - 43200 y_2_13_4_21 <= 0
 c279: t_2_16 - t_4_19 + 43200 y_2_15_4_19 <= 43200
 c280: t_4_20 - t_2_15 - 43200 y_2_15_4_19 <= 0
 c281: t_2_18 - t_4_17 + 43200 y_2_17_4_17 <= 43200
 c282: t_4_18 - t_2_17 - 43200 y_2_17_4_17 <= 0
 c283: t_2_20 - t_4_15 + 43200 y_2_19_4_15 <= 43200
 c284: t_4_16 - t_2_19 - 43200 y_2_19_4_15 <= 0
 c285: t_2_22 - t_4_13 + 43200 y_2_21_4_13 <= 43200
 c286: t_4_14 - t_2_21 - 43200 y_2_21_4_13 <= 0
 c287: t_2_24 - t_4_11 + 43200 y_2_23_4_11 <= 43200
 c288: t_4_12 - t_2_23 - 43200 y_2_23_4_11 <= 0
 c289: t_2_26 - t_4_9 + 43200 y_2_25_4_9 <= 43200
 c290: t_4_10 - t_2_25 - 43200 y_2_25_4_9 <= 0
 c291: t_2_28 - t_4_7 + 43200 y_2_27_4_7 <= 43200
 c292: t_4_8 - t_2_27 - 43200 y_2_27_4_7 <= 0
 c293: t_2_30 - t_4_5 + 43200 y_2_29_4_5 <= 43200
 c294: t_4_6 - t_2_29 - 43200 y_2_29_4_5 <= 0
 c295: t_2_32 - t_4_3 + 43200 y_2_31_4_3 <= 43200
 c296: t_4_4 - t_2_31 - 43200 y_2_31_4_3 <= 0
 c297: t_2_34 - t_4_1 + 43200 y_2_33_4_1 <= 43200
 c298: t_4_2 - t_2_33 - 43200 y_2_33_4_1 <= 0
 c299: t_3_2 - t_4_39 + 43200 y_3_1_4_39 <= 43200
 c300: t_4_40 - t_3_1 - 43200 y_3_1_4_39 <= 0
 c301: t_3_4 - t_4_37 + 43200 y_3_3_4_37 <= 43200
 c302: t_4_38 - t_3_3 - 43200 y_3_3_4_37 <= 0
 c303: t_3_6 - t_4_35 + 43200 y_3_5_4_35 <= 43200
 c304: t_4_36 - t_3_5 - 43200 y_3_5_4_35 <= 0
 c305: t_3_8 - t_4_33 + 43200 y_3_7_4_33 <= 43200
 c306: t_4_34 - t_3_7 - 43200 y_3_7_4_33 <= 0
 c307: t_3_10 - t_4_31 + 43200 y_3_9_4_31 <= 43200
 c308: t_4_32 - t_3_9 - 43200 y_3_9_4_31 <= 0
 c309: t_3_12 - t_4_29 + 43200 y_3_11_4_29 <= 43200
 c310: t_4_30 - t_3_11 - 43200 y_3_11_4_29 <= 0
 c311: t_3_14 - t_4_27 + 43200 y_3_13_4_27 <= 43200
 c312: t_4_28 - t_3_13 - 43200 y_3_13_4_27 <= 0
 c313: t_3_16 - t_4_25 + 43200 y_3_15_4_25 <= 43200
 c314: t_4_26 - t_3_15 - 43200 y_3_15_4_25 <= 0
 c315: t_3_18 - t_4_23 + 43200 y_3_17_4_23 <= 43200
 c316: t_4_24 - t_3_17 - 43200 y_3_17_4_23 <= 0
 c317: t_3_20 - t_4_21 + 43200 y_3_19_4_21 <= 43200
 c318: t_4_22 - t_3_19 - 43200 y_3_19_4_21 <= 0
 c319: t_3_22 - t_4_19 + 43200 y_3_21_4_19 <= 43200
 c320: t_4_20 - t_3_21 - 43200 y_3_21_4_19 <= 0
 c321: t_3_24 - t_4_17 + 43200 y_3_23_4_17 <= 43200
 c322: t_4_18 - t_3_23 - 43200 y_3_23_4_17 <= 0
 c323: t_3_26 - t_4_15 + 43200 y_3_25_4_15 <= 43200
 c324: t_4_16 - t_3_25 - 43200 y_3_25_4_15 <= 0
 c325: t_3_28 - t_4_13 + 43200 y_3_27_4_13 <= 43200
 c326: t_4_14 - t_3_27 - 43200 y_3_27_4_13 <= 0
 c327: t_3_30 - t_4_11 + 43200 y_3_29_4_11 <= 43200
 c328: t_4_12 - t_3_29 - 43200 y_3_29_4_11 <= 0
 c329: t_3_32 - t_4_9 + 43200 y_3_31_4_9 <= 43200
 c330: t_4_10 - t_3_31 - 43200 y_3_31_4_9 <= 0
 c331: t_3_34 - t_4_7 + 43200 y_3_33_4_7 <= 43200
 c332: t_4_8 - t_3_33 - 43200 y_3_33_4_7 <= 0
 c333: t_3_36 - t_4_5 + 43200 y_3_35_4_5 <= 43200
 c334: t_4_6 - t_3_35 - 43200 y_3_35_4_5 <= 0
 c335: t_3_38 - t_4_3 + 43200 y_3_37_4_3 <= 43200
 c336: t_4_4 - t_3_37 - 43200 y_3_37_4_3 <= 0
 c337: t_3_40 - t_4_1 + 43200 y_3_39_4_1 <= 43200
 c338: t_4_2 - t_3_39 - 43200 y_3_39_4_1 <= 0
 c339: t_0_21 - 43200 thr_0_21_0 <= 4415
 c340: t_0_21 - 43200 thr_0_21_180 <= 4595
 c341: t_0_21 - 43200 thr_0_21_360 <= 4775
 c342: t_1_15 - 43200 thr_1_15_0 <= 911
 c343: t_1_15 - 43200 thr_1_15_180 <= 1091
 c344: t_1_15 - 43200 thr_1_15_360 <= 1271
 c345: t_2_33 - 43200 thr_2_33_0 <= 3021
 c346: t_2_33 - 43200 thr_2_33_180 <= 3201
 c347: t_2_33 - 43200 thr_2_33_360 <= 3381
 c348: t_3_39 - 43200 thr_3_39_0 <= 6622
 c349: t_3_39 - 43200 thr_3_39_180 <= 6802
 c350: t_3_39 - 43200 thr_3_39_360 <= 6982
 c351: t_4_39 - 43200 thr_4_39_0 <= 4523
 c352: t_4_39 - 43200 thr_4_39_180 <= 4703
 c353: t_4_39 - 43200 thr_4_39_360 <= 4883

Bounds
       t_0_0 <= 43200
       t_0_1 <= 43200
 229 <= t_0_2 <= 43200
 778 <= t_0_3 <= 43200
 1066 <= t_0_4 <= 43200
 1066 <= t_0_5 <= 43200
 1401 <= t_0_6 <= 43200
 1701 <= t_0_7 <= 43200
 2171 <= t_0_8 <= 43200
 2171 <= t_0_9 <= 43200
 2412 <= t_0_10 <= 43200
 2412 <= t_0_11 <= 43200
 2841 <= t_0_12 <= 43200
 3081 <= t_0_13 <= 43200
 3453 <= t_0_14 <= 43200
 3453 <= t_0_15 <= 43200
 3720 <= t_0_16 <= 43200
 3720 <= t_0_17 <= 43200
 4200 <= t_0_18 <= 43200
 4200 <= t_0_19 <= 43200
 4415 <= t_0_20 <= 43200
 4415 <= t_0_21 <= 43200
 4701 <= t_0_22 <= 43200
       t_1_0 <= 43200
       t_1_1 <= 43200
 135 <= t_1_2 <= 43200
 315 <= t_1_3 <= 43200
 405 <= t_1_4 <= 43200
 405 <= t_1_5 <= 43200
 435 <= t_1_6 <= 43200
 435 <= t_1_7 <= 43200
 585 <= t_1_8 <= 43200
 615 <= t_1_9 <= 43200
 705 <= t_1_10 <= 43200
 735 <= t_1_11 <= 43200
 825 <= t_1_12 <= 43200
 855 <= t_1_13 <= 43200
 965 <= t_1_14 <= 43200
 965 <= t_1_15 <= 43200
 1155 <= t_1_16 <= 43200
       t_2_0 <= 43200
       t_2_1 <= 43200
 19 <= t_2_2 <= 43200
 49 <= t_2_3 <= 43200
 169 <= t_2_4 <= 43200
 169 <= t_2_5 <= 43200
 214 <= t_2_6 <= 43200
 214 <= t_2_7 <= 43200
 349 <= t_2_8 <= 43200
 409 <= t_2_9 <= 43200
 619 <= t_2_10 <= 43200
 649 <= t_2_11 <= 43200
 799 <= t_2_12 <= 43200
 829 <= t_2_13 <= 43200
 979 <= t_2_14 <= 43200
 1009 <= t_2_15 <= 43200
 1099 <= t_2_16 <= 43200
 1129 <= t_2_17 <= 43200
 1300 <= t_2_18 <= 43200
 1300 <= t_2_19 <= 43200
 1383 <= t_2_20 <= 43200
 1383 <= t_2_21 <= 43200
 1509 <= t_2_22 <= 43200
 1549 <= t_2_23 <= 43200
 2029 <= t_2_24 <= 43200
 2209 <= t_2_25 <= 43200
 2449 <= t_2_26 <= 43200
 2449 <= t_2_27 <= 43200
 2659 <= t_2_28 <= 43200
 2689 <= t_2_29 <= 43200
 2929 <= t_2_30 <= 43200
 2929 <= t_2_31 <= 43200
 3109 <= t_2_32 <= 43200
 3109 <= t_2_33 <= 43200
 3469 <= t_2_34 <= 43200
 2901 <= t_3_0 <= 43200
 2961 <= t_3_1 <= 43200
 3118 <= t_3_2 <= 43200
 3118 <= t_3_3 <= 43200
 3231 <= t_3_4 <= 43200
 3261 <= t_3_5 <= 43200
 3411 <= t_3_6 <= 43200
 3441 <= t_3_7 <= 43200
 3531 <= t_3_8 <= 43200
 3561 <= t_3_9 <= 43200
 3681 <= t_3_10 <= 43200
 3681 <= t_3_11 <= 43200
 3726 <= t_3_12 <= 43200
 3726 <= t_3_13 <= 43200
 3861 <= t_3_14 <= 43200
 3921 <= t_3_15 <= 43200
 4131 <= t_3_16 <= 43200
 4161 <= t_3_17 <= 43200
 4311 <= t_3_18 <= 43200
 4341 <= t_3_19 <= 43200
 4491 <= t_3_20 <= 43200
 4521 <= t_3_21 <= 43200
 4611 <= t_3_22 <= 43200
 4641 <= t_3_23 <= 43200
 4812 <= t_3_24 <= 43200
 4812 <= t_3_25 <= 43200
 4895 <= t_3_26 <= 43200
 4895 <= t_3_27 <= 43200
 5021 <= t_3_28 <= 43200
 5061 <= t_3_29 <= 43200
 5541 <= t_3_30 <= 43200
 5721 <= t_3_31 <= 43200
 5950 <= t_3_32 <= 43200
 5950 <= t_3_33 <= 43200
 6171 <= t_3_34 <= 43200
 6201 <= t_3_35 <= 43200
 6463 <= t_3_36 <= 43200
 6463 <= t_3_37 <= 43200
 6622 <= t_3_38 <= 43200
 6622 <= t_3_39 <= 43200
 6981 <= t_3_40 <= 43200
 921 <= t_4_0 <= 43200
 921 <= t_4_1 <= 43200
 1221 <= t_4_2 <= 43200
 1221 <= t_4_3 <= 43200
 1401 <= t_4_4 <= 43200
 1401 <= t_4_5 <= 43200
 1671 <= t_4_6 <= 43200
 1701 <= t_4_7 <= 43200
 1941 <= t_4_8 <= 43200
 1941 <= t_4_9 <= 43200
 2121 <= t_4_10 <= 43200
 2121 <= t_4_11 <= 43200
 2501 <= t_4_12 <= 43200
 2541 <= t_4_13 <= 43200
 2644 <= t_4_14 <= 43200
 2644 <= t_4_15 <= 43200
 2713 <= t_4_16 <= 43200
 2713 <= t_4_17 <= 43200
 2931 <= t_4_18 <= 43200
 2961 <= t_4_19 <= 43200
 3111 <= t_4_20 <= 43200
 3141 <= t_4_21 <= 43200
 3231 <= t_4_22 <= 43200
 3261 <= t_4_23 <= 43200
 3411 <= t_4_24 <= 43200
 3441 <= t_4_25 <= 43200
 3681 <= t_4_26 <= 43200
 3861 <= t_4_27 <= 43200
 3951 <= t_4_28 <= 43200
 3951 <= t_4_29 <= 43200
 3981 <= t_4_30 <= 43200
 3981 <= t_4_31 <= 43200
 4131 <= t_4_32 <= 43200
 4161 <= t_4_33 <= 43200
 4251 <= t_4_34 <= 43200
 4281 <= t_4_35 <= 43200
 4371 <= t_4_36 <= 43200
 4401 <= t_4_37 <= 43200
 4523 <= t_4_38 <= 43200
 4523 <= t_4_39 <= 43200
 4701 <= t_4_40 <= 43200
 0 <= y_0_1_2_23 <= 1
 0 <= y_0_3_2_25 <= 1
 0 <= y_0_5_2_27 <= 1
 0 <= y_0_7_2_29 <= 1
 0 <= y_0_9_2_31 <= 1
 0 <= y_0_11_2_33 <= 1
 0 <= y_0_1_3_29 <= 1
 0 <= y_0_3_3_31 <= 1
 0 <= y_0_5_3_33 <= 1
 0 <= y_0_7_3_35 <= 1
 0 <= y_0_9_3_37 <= 1
 0 <= y_0_11_3_39 <= 1
 0 <= y_0_1_4_11 <= 1
 0 <= y_0_3_4_9 <= 1
 0 <= y_0_5_4_7 <= 1
 0 <= y_0_7_4_5 <= 1
 0 <= y_0_9_4_3 <= 1
 0 <= y_0_11_4_1 <= 1
 0 <= y_1_1_2_9 <= 1
 0 <= y_1_3_2_7 <= 1
 0 <= y_1_5_2_5 <= 1
 0 <= y_1_7_2_3 <= 1
 0 <= y_1_9_2_1 <= 1
 0 <= y_1_1_3_15 <= 1
 0 <= y_1_3_3_13 <= 1
 0 <= y_1_5_3_11 <= 1
 0 <= y_1_7_3_9 <= 1
 0 <= y_1_9_3_7 <= 1
 0 <= y_1_11_3_5 <= 1
 0 <= y_1_13_3_3 <= 1
 0 <= y_1_15_3_1 <= 1
 0 <= y_1_1_4_25 <= 1
 0 <= y_1_3_4_27 <= 1
 0 <= y_1_5_4_29 <= 1
 0 <= y_1_7_4_31 <= 1
 0 <= y_1_9_4_33 <= 1
 0 <= y_1_11_4_35 <= 1
 0 <= y_1_13_4_37 <= 1
 0 <= y_1_15_4_39 <= 1
 0 <= y_2_1_3_7 <= 1
 0 <= y_2_3_3_9 <= 1
 0 <= y_2_5_3_11 <= 1
 0 <= y_2_7_3_13 <= 1
 0 <= y_2_9_3_15 <= 1
 0 <= y_2_11_3_17 <= 1
 0 <= y_2_13_3_19 <= 1
 0 <= y_2_15_3_21 <= 1
 0 <= y_2_17_3_23 <= 1
 0 <= y_2_19_3_25 <= 1
 0 <= y_2_21_3_27 <= 1
 0 <= y_2_23_3_29 <= 1
 0 <= y_2_25_3_31 <= 1
 0 <= y_2_27_3_33 <= 1
 0 <= y_2_29_3_35 <= 1
 0 <= y_2_31_3_37 <= 1
 0 <= y_2_33_3_39 <= 1
 0 <= y_2_1_4_33 <= 1
 0 <= y_2_3_4_31 <= 1
 0 <= y_2_5_4_29 <= 1
 0 <= y_2_7_4_27 <= 1
 0 <= y_2_9_4_25 <= 1
 0 <= y_2_11_4_23 <= 1
 0 <= y_2_13_4_21 <= 1
 0 <= y_2_15_4_19 <= 1
 0 <= y_2_17_4_17 <= 1
 0 <= y_2_19_4_15 <= 1
 0 <= y_2_21_4_13 <= 1
 0 <= y_2_23_4_11 <= 1
 0 <= y_2_25_4_9 <= 1
 0 <= y_2_27_4_7 <= 1
 0 <= y_2_29_4_5 <= 1
 0 <= y_2_31_4_3 <= 1
 0 <= y_2_33_4_1 <= 1
 0 <= y_3_1_4_39 <= 1
 0 <= y_3_3_4_37 <= 1
 0 <= y_3_5_4_35 <= 1
 0 <= y_3_7_4_33 <= 1
 0 <= y_3_9_4_31 <= 1
 0 <= y_3_11_4_29 <= 1
 0 <= y_3_13_4_27 <= 1
 0 <= y_3_15_4_25 <= 1
 0 <= y_3_17_4_23 <= 1
 0 <= y_3_19_4_21 <= 1
 0 <= y_3_21_4_19 <= 1
 0 <= y_3_23_4_17 <= 1
 0 <= y_3_25_4_15 <= 1
 0 <= y_3_27_4_13 <= 1
 0 <= y_3_29_4_11 <= 1
 0 <= y_3_31_4_9 <= 1
 0 <= y_3_33_4_7 <= 1
 0 <= y_3_35_4_5 <= 1
 0 <= y_3_37_4_3 <= 1
 0 <= y_3_39_4_1 <= 1
 0 <= thr_0_21_0 <= 1
 0 <= thr_0_21_180 <= 1
 0 <= thr_0_21_360 <= 1
 0 <= thr_1_15_0 <= 1
 0 <= thr_1_15_180 <= 1
 0 <= thr_1_15_360 <= 1
 0 <= thr_2_33_0 <= 1
 0 <= thr_2_33_180 <= 1
 0 <= thr_2_33_360 <= 1
 0 <= thr_3_39_0 <= 1
 0 <= thr_3_39_180 <= 1
 0 <= thr_3_39_360 <= 1
 0 <= thr_4_39_0 <= 1
 0 <= thr_4_39_180 <= 1
 0 <= thr_4_39_360 <= 1

Binaries
 y_0_1_2_23 y_0_3_2_25 y_0_5_2_27 y_0_7_2_29 y_0_9_2_31 y_0_11_2_33 y_0_1_3_29
 y_0_3_3_31 y_0_5_3_33 y_0_7_3_35 y_0_9_3_37 y_0_11_3_39 y_0_1_4_11 y_0_3_4_9
 y_0_5_4_7 y_0_7_4_5 y_0_9_4_3 y_0_11_4_1 y_1_1_2_9 y_1_3_2_7 y_1_5_2_5
 y_1_7_2_3 y_1_9_2_1 y_1_1_3_15 y_1_3_3_13 y_1_5_3_11 y_1_7_3_9 y_1_9_3_7
 y_1_11_3_5 y_1_13_3_3 y_1_15_3_1 y_1_1_4_25 y_1_3_4_27 y_1_5_4_29 y_1_7_4_31
 y_1_9_4_33 y_1_11_4_35 y_1_13_4_37 y_1_15_4_39 y_2_1_3_7 y_2_3_3_9 y_2_5_3_11
 y_2_7_3_13 y_2_9_3_15 y_2_11_3_17 y_2_13_3_19 y_2_15_3_21 y_2_17_3_23
 y_2_19_3_25 y_2_21_3_27 y_2_23_3_29 y_2_25_3_31 y_2_27_3_33 y_2_29_3_35
 y_2_31_3_37 y_2_33_3_39 y_2_1_4_33 y_2_3_4_31 y_2_5_4_29 y_2_7_4_27 y_2_9_4_25
 y_2_11_4_23 y_2_13_4_21 y_2_15_4_19 y_2_17_4_17 y_2_19_4_15 y_2_21_4_13
 y_2_23_4_11 y_2_25_4_9 y_2_27_4_7 y_2_29_4_5 y_2_31_4_3 y_2_33_4_1 y_3_1_4_39
 y_3_3_4_37 y_3_5_4_35 y_3_7_4_33 y_3_9_4_31 y_3_11_4_29 y_3_13_4_27 y_3_15_4_25
 y_3_17_4_23 y_3_19_4_21 y_3_21_4_19 y_3_23_4_17 y_3_25_4_15 y_3_27_4_13
 y_3_29_4_11 y_3_31_4_9 y_3_33_4_7 y_3_35_4_5 y_3_37_4_3 y_3_39_4_1 thr_0_21_0
 thr_0_21_180 thr_0_21_360 thr_1_15_0 thr_1_15_180 thr_1_15_360 thr_2_33_0
 thr_2_33_180 thr_2_33_360 thr_3_39_0 thr_3_39_180 thr_3_39_360 thr_4_39_0
 thr_4_39_180 thr_4_39_360
End
